(benchmark gametime
:status unknown
:logic QF_AUFBV
:extrafuns ((gtINDEX44  BitVec[32]))
:extrafuns ((gtFIELD__bitsForTID0__gtAGG____anonstruct_D_Work_4  Array[32:32]))
:extrafuns ((gtINDEX45  BitVec[32]))
:extrafuns ((gtAGG__rtDWork  BitVec[32]))
:extrafuns ((gtINDEX42  BitVec[32]))
:extrafuns ((gtINDEX43  BitVec[32]))
:extrafuns ((gtINDEX40  BitVec[32]))
:extrafuns ((gtINDEX41  BitVec[32]))
:extrafuns ((gtINDEX39  BitVec[32]))
:extrafuns ((gtINDEX37  BitVec[32]))
:extrafuns ((gtINDEX38  BitVec[32]))
:extrafuns ((gtINDEX36  BitVec[32]))
:extrafuns ((gtINDEX35  BitVec[32]))
:extrafuns ((gtINDEX34  BitVec[32]))
:extrafuns ((gtINDEX33  BitVec[32]))
:extrafuns ((gtINDEX32  BitVec[32]))
:extrafuns ((gtINDEX31  BitVec[32]))
:extrafuns ((gtINDEX29  BitVec[32]))
:extrafuns ((gtINDEX30  BitVec[32]))
:extrafuns ((gtINDEX27  BitVec[32]))
:extrafuns ((gtINDEX28  BitVec[32]))
:extrafuns ((gtINDEX25  BitVec[32]))
:extrafuns ((gtINDEX26  BitVec[32]))
:extrafuns ((gtINDEX23  BitVec[32]))
:extrafuns ((gtINDEX24  BitVec[32]))
:extrafuns ((gtINDEX21  BitVec[32]))
:extrafuns ((gtINDEX22  BitVec[32]))
:extrafuns ((gtINDEX19  BitVec[32]))
:extrafuns ((gtINDEX20  BitVec[32]))
:extrafuns ((gtINDEX17  BitVec[32]))
:extrafuns ((gtINDEX18  BitVec[32]))
:extrafuns ((gtINDEX15  BitVec[32]))
:extrafuns ((gtINDEX16  BitVec[32]))
:extrafuns ((gtINDEX14  BitVec[32]))
:extrafuns ((gtINDEX13  BitVec[32]))
:extrafuns ((gtINDEX12  BitVec[32]))
:extrafuns ((gtINDEX11  BitVec[32]))
:extrafuns ((gtINDEX10  BitVec[32]))
:extrafuns ((gtINDEX8  BitVec[32]))
:extrafuns ((gtINDEX9  BitVec[32]))
:extrafuns ((gtINDEX7  BitVec[32]))
:extrafuns ((gtINDEX6  BitVec[32]))
:extrafuns ((gtINDEX4  BitVec[32]))
:extrafuns ((gtINDEX5  BitVec[32]))
:extrafuns ((gtINDEX2  BitVec[32]))
:extrafuns ((gtINDEX3  BitVec[32]))
:extrafuns ((gtINDEX0  BitVec[32]))
:extrafuns ((gtINDEX1  BitVec[32]))
:extrafuns ((gtFIELD__is_Eng__gtAGG____anonstruct_bitsForTID0_5  Array[32:1]))
:extrafuns ((gtFIELD__is_active_Eng__gtAGG____anonstruct_bitsForTID0_5  Array[32:1]))
:extrafuns ((gtFIELD__is_active_PURI__gtAGG____anonstruct_bitsForTID0_5  Array[32:1]))
:extrafuns ((gtFIELD__temporalCounter_i4__gtAGG____anonstruct_D_Work_4  Array[32:32]))
:extrafuns ((gtFIELD__temporalCounter_i4__gtAGG____anonstruct_D_Work_4_1_  Array[32:32]))
:extrafuns ((gtFIELD__is_PVRP__gtAGG____anonstruct_bitsForTID0_5  Array[32:2]))
:extrafuns ((gtFIELD__is_PVRP__gtAGG____anonstruct_bitsForTID0_5_1_  Array[32:2]))
:extrafuns ((gtFIELD__comm__gtAGG____anonstruct_D_Work_4  Array[32:32]))
:extrafuns ((gtFIELD__comm__gtAGG____anonstruct_D_Work_4_1_  Array[32:32]))
:extrafuns ((gtFIELD__sh_rst__gtAGG____anonstruct_D_Work_4  Array[32:32]))
:extrafuns ((gtFIELD__sh_rst__gtAGG____anonstruct_D_Work_4_1_  Array[32:32]))
:extrafuns ((gtFIELD__n_t_a1__gtAGG____anonstruct_D_Work_4  Array[32:32]))
:extrafuns ((gtFIELD__n_t_a1__gtAGG____anonstruct_D_Work_4_1_  Array[32:32]))
:extrafuns ((gtFIELD__sent__gtAGG____anonstruct_D_Work_4  Array[32:32]))
:extrafuns ((gtFIELD__sent__gtAGG____anonstruct_D_Work_4_1_  Array[32:32]))
:extrafuns ((gtFIELD__is_active_PVRP__gtAGG____anonstruct_bitsForTID0_5  Array[32:1]))
:extrafuns ((gtFIELD__is_active_PPVARP__gtAGG____anonstruct_bitsForTID0_5  Array[32:1]))
:extrafuns ((gtFIELD__is_active_PLRI__gtAGG____anonstruct_bitsForTID0_5  Array[32:1]))
:extrafuns ((gtFIELD__is_PAVI__gtAGG____anonstruct_bitsForTID0_5  Array[32:3]))
:extrafuns ((gtFIELD__is_PAVI__gtAGG____anonstruct_bitsForTID0_5_1_  Array[32:3]))
:extrafuns ((sfEvent_  BitVec[32]))
:extrafuns ((gtFIELD__URIex__gtAGG____anonstruct_bitsForTID0_5  Array[32:1]))
:extrafuns ((gtFIELD__AVId__gtAGG____anonstruct_D_Work_4  Array[32:32]))
:extrafuns ((gtFIELD__n_t__gtAGG____anonstruct_D_Work_4  Array[32:32]))
:extrafuns ((gtFIELD__temporalCounter_i1__gtAGG____anonstruct_D_Work_4  Array[32:32]))
:extrafuns ((gtFIELD__is_active_PAVI__gtAGG____anonstruct_bitsForTID0_5  Array[32:1]))
:extrapreds ((constraint74 ))
:extrapreds ((constraint73 ))
:extrapreds ((constraint72 ))
:extrapreds ((constraint71 ))
:extrapreds ((constraint70 ))
:extrapreds ((constraint69 ))
:extrapreds ((constraint68 ))
:extrapreds ((constraint67 ))
:extrapreds ((constraint66 ))
:extrapreds ((constraint65 ))
:extrapreds ((constraint64 ))
:extrapreds ((constraint63 ))
:extrapreds ((constraint62 ))
:extrapreds ((constraint61 ))
:extrapreds ((constraint60 ))
:extrapreds ((constraint59 ))
:extrapreds ((constraint58 ))
:extrapreds ((constraint57 ))
:extrapreds ((constraint56 ))
:extrapreds ((constraint55 ))
:extrapreds ((constraint54 ))
:extrapreds ((constraint53 ))
:extrapreds ((constraint52 ))
:extrapreds ((constraint51 ))
:extrapreds ((constraint50 ))
:extrapreds ((constraint49 ))
:extrapreds ((constraint48 ))
:extrapreds ((constraint47 ))
:extrapreds ((constraint46 ))
:extrapreds ((constraint45 ))
:extrapreds ((constraint44 ))
:extrapreds ((constraint43 ))
:extrapreds ((constraint42 ))
:extrapreds ((constraint41 ))
:extrapreds ((constraint40 ))
:extrapreds ((constraint39 ))
:extrapreds ((constraint38 ))
:extrapreds ((constraint37 ))
:extrapreds ((constraint36 ))
:extrapreds ((constraint35 ))
:extrapreds ((constraint34 ))
:extrapreds ((constraint33 ))
:extrapreds ((constraint32 ))
:extrapreds ((constraint31 ))
:extrapreds ((constraint30 ))
:extrapreds ((constraint29 ))
:extrapreds ((constraint28 ))
:extrapreds ((constraint27 ))
:extrapreds ((constraint26 ))
:extrapreds ((constraint25 ))
:extrapreds ((constraint24 ))
:extrapreds ((constraint23 ))
:extrapreds ((constraint22 ))
:extrapreds ((constraint21 ))
:extrapreds ((constraint20 ))
:extrapreds ((constraint19 ))
:extrapreds ((constraint18 ))
:extrapreds ((constraint17 ))
:extrapreds ((constraint16 ))
:extrapreds ((constraint15 ))
:extrapreds ((constraint14 ))
:extrapreds ((constraint13 ))
:extrapreds ((constraint12 ))
:extrapreds ((constraint11 ))
:extrapreds ((constraint10 ))
:extrapreds ((constraint9 ))
:extrapreds ((constraint8 ))
:extrapreds ((constraint7 ))
:extrapreds ((constraint6 ))
:extrapreds ((constraint5 ))
:extrapreds ((constraint4 ))
:extrapreds ((constraint3 ))
:extrapreds ((constraint2 ))
:extrapreds ((constraint1 ))
:extrapreds ((constraint0 ))
:formula
(flet ($x411 (and constraint0 constraint1 constraint2 constraint3 constraint4 constraint5 constraint6 constraint7 constraint8 constraint9 constraint10 constraint11 constraint12 constraint13 constraint14 constraint15 constraint16 constraint17 constraint18 constraint19 constraint20 constraint21 constraint22 constraint23 constraint24 constraint25 constraint26 constraint27 constraint28 constraint29 constraint30 constraint31 constraint32 constraint33 constraint34 constraint35 constraint36 constraint37 constraint38 constraint39 constraint40 constraint41 constraint42 constraint43 constraint44 constraint45 constraint46 constraint47 constraint48 constraint49 constraint50 constraint51 constraint52 constraint53 constraint54 constraint55 constraint56 constraint57 constraint58 constraint59 constraint60 constraint61 constraint62 constraint63 constraint64 constraint65 constraint66 constraint67 constraint68 constraint69 constraint70 constraint71 constraint72 constraint73 constraint74))
(flet ($x259 (= gtINDEX45 (select gtFIELD__bitsForTID0__gtAGG____anonstruct_D_Work_4 gtINDEX44)))
(flet ($x255 (= gtINDEX43 (select gtFIELD__bitsForTID0__gtAGG____anonstruct_D_Work_4 gtINDEX42)))
(flet ($x251 (= gtINDEX41 (select gtFIELD__bitsForTID0__gtAGG____anonstruct_D_Work_4 gtINDEX40)))
(flet ($x246 (= gtINDEX38 (select gtFIELD__bitsForTID0__gtAGG____anonstruct_D_Work_4 gtINDEX37)))
(flet ($x236 (= gtINDEX30 (select gtFIELD__bitsForTID0__gtAGG____anonstruct_D_Work_4 gtINDEX29)))
(flet ($x232 (= gtINDEX28 (select gtFIELD__bitsForTID0__gtAGG____anonstruct_D_Work_4 gtINDEX27)))
(flet ($x228 (= gtINDEX26 (select gtFIELD__bitsForTID0__gtAGG____anonstruct_D_Work_4 gtINDEX25)))
(flet ($x224 (= gtINDEX24 (select gtFIELD__bitsForTID0__gtAGG____anonstruct_D_Work_4 gtINDEX23)))
(flet ($x220 (= gtINDEX22 (select gtFIELD__bitsForTID0__gtAGG____anonstruct_D_Work_4 gtINDEX21)))
(flet ($x216 (= gtINDEX20 (select gtFIELD__bitsForTID0__gtAGG____anonstruct_D_Work_4 gtINDEX19)))
(flet ($x212 (= gtINDEX18 (select gtFIELD__bitsForTID0__gtAGG____anonstruct_D_Work_4 gtINDEX17)))
(flet ($x208 (= gtINDEX16 (select gtFIELD__bitsForTID0__gtAGG____anonstruct_D_Work_4 gtINDEX15)))
(flet ($x199 (= gtINDEX9 (select gtFIELD__bitsForTID0__gtAGG____anonstruct_D_Work_4 gtINDEX8)))
(flet ($x193 (= gtINDEX5 (select gtFIELD__bitsForTID0__gtAGG____anonstruct_D_Work_4 gtINDEX4)))
(flet ($x189 (= gtINDEX3 (select gtFIELD__bitsForTID0__gtAGG____anonstruct_D_Work_4 gtINDEX2)))
(flet ($x185 (= gtINDEX1 (select gtFIELD__bitsForTID0__gtAGG____anonstruct_D_Work_4 gtINDEX0)))
(let (?x178 (zero_extend[31] (select gtFIELD__is_Eng__gtAGG____anonstruct_bitsForTID0_5 gtINDEX45)))
(let (?x172 (select gtFIELD__is_active_Eng__gtAGG____anonstruct_bitsForTID0_5 gtINDEX43))
(let (?x166 (select gtFIELD__is_active_PURI__gtAGG____anonstruct_bitsForTID0_5 gtINDEX41))
(let (?x163 (store gtFIELD__temporalCounter_i4__gtAGG____anonstruct_D_Work_4 gtINDEX39 bv0[32]))
(flet ($x311 (iff constraint25 (= gtFIELD__temporalCounter_i4__gtAGG____anonstruct_D_Work_4_1_ ?x163)))
(let (?x160 (store gtFIELD__is_PVRP__gtAGG____anonstruct_bitsForTID0_5 gtINDEX38 (extract[1:0] bv2[32])))
(flet ($x309 (iff constraint24 (= gtFIELD__is_PVRP__gtAGG____anonstruct_bitsForTID0_5_1_ ?x160)))
(let (?x155 (bvadd (select gtFIELD__comm__gtAGG____anonstruct_D_Work_4 gtINDEX35) (bvmul bv4294967295[32] bv1[32])))
(flet ($x157 (= gtFIELD__comm__gtAGG____anonstruct_D_Work_4_1_ (store gtFIELD__comm__gtAGG____anonstruct_D_Work_4 gtINDEX36 ?x155)))
(flet ($x149 (= gtFIELD__sh_rst__gtAGG____anonstruct_D_Work_4_1_ (store gtFIELD__sh_rst__gtAGG____anonstruct_D_Work_4 gtINDEX34 bv1[32])))
(flet ($x146 (= gtFIELD__n_t_a1__gtAGG____anonstruct_D_Work_4_1_ (store gtFIELD__n_t_a1__gtAGG____anonstruct_D_Work_4 gtINDEX33 bv0[32])))
(flet ($x143 (= gtFIELD__sent__gtAGG____anonstruct_D_Work_4_1_ (store gtFIELD__sent__gtAGG____anonstruct_D_Work_4 gtINDEX32 bv4[32])))
(flet ($x139 (= (select gtFIELD__sent__gtAGG____anonstruct_D_Work_4 gtINDEX31) bv0[32]))
(let (?x133 (select gtFIELD__is_PVRP__gtAGG____anonstruct_bitsForTID0_5 gtINDEX30))
(let (?x128 (select gtFIELD__is_PVRP__gtAGG____anonstruct_bitsForTID0_5 gtINDEX28))
(let (?x123 (select gtFIELD__is_PVRP__gtAGG____anonstruct_bitsForTID0_5 gtINDEX26))
(let (?x118 (select gtFIELD__is_active_PVRP__gtAGG____anonstruct_bitsForTID0_5 gtINDEX24))
(let (?x112 (select gtFIELD__is_active_PPVARP__gtAGG____anonstruct_bitsForTID0_5 gtINDEX22))
(let (?x106 (select gtFIELD__is_active_PLRI__gtAGG____anonstruct_bitsForTID0_5 gtINDEX20))
(let (?x103 (store gtFIELD__is_PAVI__gtAGG____anonstruct_bitsForTID0_5 gtINDEX18 (extract[2:0] bv1[32])))
(flet ($x285 (iff constraint12 (= gtFIELD__is_PAVI__gtAGG____anonstruct_bitsForTID0_5_1_ ?x103)))
(let (?x96 (zero_extend[31] (select gtFIELD__URIex__gtAGG____anonstruct_bitsForTID0_5 gtINDEX16)))
(flet ($x93 (= (select gtFIELD__comm__gtAGG____anonstruct_D_Work_4 gtINDEX14) bv0[32]))
(flet ($x90 (= (select gtFIELD__sent__gtAGG____anonstruct_D_Work_4 gtINDEX13) bv0[32]))
(let (?x85 (bvadd (select gtFIELD__n_t__gtAGG____anonstruct_D_Work_4 gtINDEX11) (select gtFIELD__AVId__gtAGG____anonstruct_D_Work_4 gtINDEX12)))
(let (?x80 (select gtFIELD__temporalCounter_i1__gtAGG____anonstruct_D_Work_4 gtINDEX10))
(let (?x77 (zero_extend[31] (select gtFIELD__URIex__gtAGG____anonstruct_bitsForTID0_5 gtINDEX9)))
(flet ($x74 (= (select gtFIELD__comm__gtAGG____anonstruct_D_Work_4 gtINDEX7) bv0[32]))
(flet ($x71 (= (select gtFIELD__sent__gtAGG____anonstruct_D_Work_4 gtINDEX6) bv0[32]))
(let (?x66 (zero_extend[29] (select gtFIELD__is_PAVI__gtAGG____anonstruct_bitsForTID0_5 gtINDEX5)))
(let (?x60 (zero_extend[29] (select gtFIELD__is_PAVI__gtAGG____anonstruct_bitsForTID0_5 gtINDEX3)))
(let (?x53 (select gtFIELD__is_active_PAVI__gtAGG____anonstruct_bitsForTID0_5 gtINDEX1))
(flet ($x410 (and (iff constraint0 (not (= sfEvent_ bv8[32]))) (iff constraint1 (not (= (zero_extend[31] ?x53) bv0[32]))) (iff constraint2 (not (= ?x60 bv1[32]))) (iff constraint3 (= ?x66 bv2[32])) (iff constraint4 $x71) (iff constraint5 $x74) (iff constraint6 (= ?x77 bv0[32])) (iff constraint7 (not (= ?x80 ?x85))) (iff constraint8 $x90) (iff constraint9 $x93) (iff constraint10 (not (= ?x96 bv1[32]))) (iff constraint11 (= sfEvent_ bv5[32])) $x285 (iff constraint13 (not (not (= (zero_extend[31] ?x106) bv0[32])))) (iff constraint14 (not (not (= (zero_extend[31] ?x112) bv0[32])))) (iff constraint15 (not (= (zero_extend[31] ?x118) bv0[32]))) (iff constraint16 (not (= (zero_extend[30] ?x123) bv1[32]))) (iff constraint17 (not (= (zero_extend[30] ?x128) bv2[32]))) (iff constraint18 (= (zero_extend[30] ?x133) bv3[32])) (iff constraint19 $x139) (iff constraint20 $x143) (iff constraint21 $x146) (iff constraint22 $x149) (iff constraint23 $x157) $x309 $x311 (iff constraint26 (not (not (= (zero_extend[31] ?x166) bv0[32])))) (iff constraint27 (not (= (zero_extend[31] ?x172) bv0[32]))) (iff constraint28 (not (= ?x178 bv1[32]))) (iff constraint29 (= gtINDEX0 gtAGG__rtDWork)) (iff constraint30 $x185) (iff constraint31 (= gtINDEX2 gtAGG__rtDWork)) (iff constraint32 $x189) (iff constraint33 (= gtINDEX4 gtAGG__rtDWork)) (iff constraint34 $x193) (iff constraint35 (= gtINDEX6 gtAGG__rtDWork)) (iff constraint36 (= gtINDEX7 gtAGG__rtDWork)) (iff constraint37 (= gtINDEX8 gtAGG__rtDWork)) (iff constraint38 $x199) (iff constraint39 (= gtINDEX10 gtAGG__rtDWork)) (iff constraint40 (= gtINDEX11 gtAGG__rtDWork)) (iff constraint41 (= gtINDEX12 gtAGG__rtDWork)) (iff constraint42 (= gtINDEX13 gtAGG__rtDWork)) (iff constraint43 (= gtINDEX14 gtAGG__rtDWork)) (iff constraint44 (= gtINDEX15 gtAGG__rtDWork)) (iff constraint45 $x208) (iff constraint46 (= gtINDEX17 gtAGG__rtDWork)) (iff constraint47 $x212) (iff constraint48 (= gtINDEX19 gtAGG__rtDWork)) (iff constraint49 $x216) (iff constraint50 (= gtINDEX21 gtAGG__rtDWork)) (iff constraint51 $x220) (iff constraint52 (= gtINDEX23 gtAGG__rtDWork)) (iff constraint53 $x224) (iff constraint54 (= gtINDEX25 gtAGG__rtDWork)) (iff constraint55 $x228) (iff constraint56 (= gtINDEX27 gtAGG__rtDWork)) (iff constraint57 $x232) (iff constraint58 (= gtINDEX29 gtAGG__rtDWork)) (iff constraint59 $x236) (iff constraint60 (= gtINDEX31 gtAGG__rtDWork)) (iff constraint61 (= gtINDEX32 gtAGG__rtDWork)) (iff constraint62 (= gtINDEX33 gtAGG__rtDWork)) (iff constraint63 (= gtINDEX34 gtAGG__rtDWork)) (iff constraint64 (= gtINDEX35 gtAGG__rtDWork)) (iff constraint65 (= gtINDEX36 gtAGG__rtDWork)) (iff constraint66 (= gtINDEX37 gtAGG__rtDWork)) (iff constraint67 $x246) (iff constraint68 (= gtINDEX39 gtAGG__rtDWork)) (iff constraint69 (= gtINDEX40 gtAGG__rtDWork)) (iff constraint70 $x251) (iff constraint71 (= gtINDEX42 gtAGG__rtDWork)) (iff constraint72 $x255) (iff constraint73 (= gtINDEX44 gtAGG__rtDWork)) (iff constraint74 $x259)))
(and $x410 $x411)))))))))))))))))))))))))))))))))))))))))))))))))))
)
